problems/VanDerWaerdenNumbers/VanDerWaerden-models/noch/O2/lingeling/model_4-k3l4n32-solution000001.solution
language Essence 1.3

letting p be
        partition({1, 2, 15, 18, 20, 24, 27, 29}, {3, 4, 5, 7, 10, 11, 19, 21, 25, 26, 30, 31},
                  {6, 8, 9, 12, 13, 14, 16, 17, 22, 23, 28, 32})
